c SAT Generator for power-law distributed variable frequencies
c -g u -v 20 -c 91 -k 3 -p 2.750000 -b 3.200000 -f /home/schmidt/Devel/ni-kop-sat/data/ensemble/ruf20-91/ruf20-91-445 -u 1 -U 1 -s 3715838591
p cnf 20 91
-3 12 -16 0
2 -10 11 0
7 -14 -18 0
8 -12 15 0
-1 3 12 0
13 14 -20 0
-5 17 18 0
10 13 -20 0
-2 -6 -9 0
-10 12 -15 0
-3 8 9 0
-1 15 20 0
-6 17 19 0
-1 -10 -18 0
2 -6 7 0
2 9 -11 0
-1 18 -19 0
-3 -11 -16 0
-15 16 -18 0
-1 -10 14 0
2 -8 18 0
2 -8 -14 0
-9 11 -20 0
-3 -8 -10 0
-2 -14 -19 0
-4 18 20 0
-4 -9 14 0
-3 12 17 0
6 -11 12 0
-6 -10 17 0
-1 14 19 0
-13 16 -17 0
-3 -8 13 0
-2 -5 9 0
14 -17 -20 0
3 7 -9 0
8 12 14 0
-5 6 8 0
2 -14 16 0
-7 -8 17 0
5 -8 -9 0
5 -13 -14 0
-2 9 -16 0
-2 7 -11 0
4 12 19 0
-13 14 -18 0
-3 4 12 0
10 -14 20 0
-1 -5 -18 0
-5 -10 -17 0
-5 -12 18 0
-3 6 -19 0
6 13 16 0
-8 17 18 0
-4 -5 14 0
3 -16 -20 0
-5 6 20 0
7 10 20 0
7 11 -20 0
-2 11 -16 0
-1 -7 17 0
-6 -10 -19 0
-4 8 -11 0
-7 8 19 0
1 13 19 0
-12 -14 -16 0
-5 6 14 0
-7 -9 -16 0
2 10 13 0
4 12 -20 0
-1 12 -13 0
-5 6 16 0
1 -9 13 0
2 -9 -14 0
-9 16 -20 0
7 -11 -13 0
-10 -16 -17 0
3 12 15 0
-4 7 -16 0
-5 -8 13 0
-3 6 18 0
7 -15 -18 0
9 -13 -20 0
-1 4 -13 0
-6 9 -17 0
4 -8 -14 0
-2 -4 -6 0
-9 -10 12 0
-10 -16 19 0
-11 -14 -16 0
1 -10 -17 0
